p ocr 17 32 64
1 37
1 43
1 49
2 23
2 35
2 45
3 36
3 38
3 46
4 23
4 25
4 44
5 33
5 34
5 44
6 39
6 47
6 48
7 19
7 21
7 35
8 28
8 37
8 38
9 24
9 26
9 40
10 21
10 22
10 25
10 27
10 28
10 29
10 31
10 32
10 34
10 39
10 40
10 41
10 42
10 43
10 45
10 46
11 20
11 27
11 48
12 20
12 24
12 31
13 22
13 30
13 47
14 19
14 30
14 32
15 26
15 29
15 36
16 18
16 33
16 42
17 18
17 41
17 49